sat
(:max-memory         18.52
 :memory             18.43
 :nlsat-arith-var    3
 :nlsat-atoms        12
 :nlsat-bool-var     1
 :nlsat-clauses      9
 :nlsat-conflicts    1
 :nlsat-decisions    1
 :nlsat-propagations 11
 :nlsat-stages       5
 :num-allocs         72736
 :rlimit-count       3713
 :time               0.00
 :total-time         0.02)
